p cnf 21 70
21 20 15 0
21 19 14 0
20 19 10 0
15 14 10 0
21 18 13 0
20 18 9 0
15 13 9 0
19 18 6 0
14 13 6 0
10 9 6 0
21 17 12 0
20 17 8 0
15 12 8 0
19 17 5 0
14 12 5 0
10 8 5 0
18 17 3 0
13 12 3 0
9 8 3 0
6 5 3 0
21 16 11 0
20 16 7 0
15 11 7 0
19 16 4 0
14 11 4 0
10 7 4 0
18 16 2 0
13 11 2 0
9 7 2 0
6 4 2 0
17 16 1 0
12 11 1 0
8 7 1 0
5 4 1 0
3 2 1 0
-21 -20 -15 -19 -14 -10 0
-21 -20 -15 -18 -13 -9 0
-21 -19 -14 -18 -13 -6 0
-20 -19 -10 -18 -9 -6 0
-15 -14 -10 -13 -9 -6 0
-21 -20 -15 -17 -12 -8 0
-21 -19 -14 -17 -12 -5 0
-20 -19 -10 -17 -8 -5 0
-15 -14 -10 -12 -8 -5 0
-21 -18 -13 -17 -12 -3 0
-20 -18 -9 -17 -8 -3 0
-15 -13 -9 -12 -8 -3 0
-19 -18 -6 -17 -5 -3 0
-14 -13 -6 -12 -5 -3 0
-10 -9 -6 -8 -5 -3 0
-21 -20 -15 -16 -11 -7 0
-21 -19 -14 -16 -11 -4 0
-20 -19 -10 -16 -7 -4 0
-15 -14 -10 -11 -7 -4 0
-21 -18 -13 -16 -11 -2 0
-20 -18 -9 -16 -7 -2 0
-15 -13 -9 -11 -7 -2 0
-19 -18 -6 -16 -4 -2 0
-14 -13 -6 -11 -4 -2 0
-10 -9 -6 -7 -4 -2 0
-21 -17 -12 -16 -11 -1 0
-20 -17 -8 -16 -7 -1 0
-15 -12 -8 -11 -7 -1 0
-19 -17 -5 -16 -4 -1 0
-14 -12 -5 -11 -4 -1 0
-10 -8 -5 -7 -4 -1 0
-18 -17 -3 -16 -2 -1 0
-13 -12 -3 -11 -2 -1 0
-9 -8 -3 -7 -2 -1 0
-6 -5 -3 -4 -2 -1 0
